
(set-option :produce-models true)
(set-option :inline-size-limit 10000)

(declare-const var0 String)

(push 1)
(assert (str.in.re var0 (re.* (re.range "\x01" "\xff"))))
(assert (str.in.re var0 (re.++ (re.++ re.begin-anchor (re.++ (re.union (str.to.re "(") (str.to.re "")) (re.++ (re.++ ((_ re.capture 1) (re.range "0" "9")) (re.++ ((_ re.capture 2) (re.range "0" "9")) ((_ re.capture 3) (re.range "0" "9")))) (re.++ (re.union (str.to.re ")") (str.to.re "")) (re.++ (re.union (re.++ (str.to.re "") (str.to.re " ")) (str.to.re "")) (re.++ ((_ re.capture 4) (re.diff (re.range "\x01" "\xff") (re.range "0" "1"))) (re.++ (re.++ ((_ re.capture 5) (re.range "0" "9")) ((_ re.capture 6) (re.range "0" "9"))) (re.++ (re.union (re.++ (str.to.re "") (str.to.re " ")) (str.to.re "")) (re.++ (re.union (re.++ (str.to.re "") (str.to.re "-")) (str.to.re "")) (re.++ (re.union (re.++ (str.to.re "") (str.to.re " ")) (str.to.re "")) (re.++ (re.++ ((_ re.capture 7) (re.range "0" "9")) (re.++ ((_ re.capture 8) (re.range "0" "9")) (re.++ ((_ re.capture 9) (re.range "0" "9")) ((_ re.capture 10) (re.range "0" "9"))))) (re.++ (re.* (str.to.re " ")) (re.union ((_ re.capture 11) (re.++ (re.union ((_ re.capture 12) (str.to.re "x")) (str.to.re "")) (re.union (re.union (re.union (re.union (re.++ ((_ re.capture 13) (re.range "0" "9")) (re.++ ((_ re.capture 14) (re.range "0" "9")) (re.++ ((_ re.capture 15) (re.range "0" "9")) (re.++ ((_ re.capture 16) (re.range "0" "9")) ((_ re.capture 17) (re.range "0" "9")))))) (re.++ ((_ re.capture 18) (re.range "0" "9")) (re.++ ((_ re.capture 19) (re.range "0" "9")) (re.++ ((_ re.capture 20) (re.range "0" "9")) ((_ re.capture 21) (re.range "0" "9")))))) (re.++ ((_ re.capture 22) (re.range "0" "9")) (re.++ ((_ re.capture 23) (re.range "0" "9")) ((_ re.capture 24) (re.range "0" "9"))))) (re.++ ((_ re.capture 25) (re.range "0" "9")) ((_ re.capture 26) (re.range "0" "9")))) ((_ re.capture 27) (re.range "0" "9"))))) (str.to.re "")))))))))))))) re.end-anchor)))	; match!==null
(assert (not (str.in.re ((_ str.extract 1) var0 (re.++ (re.++ re.begin-anchor (re.++ (re.union (str.to.re "(") (str.to.re "")) (re.++ (re.++ ((_ re.capture 1) (re.range "0" "9")) (re.++ ((_ re.capture 2) (re.range "0" "9")) ((_ re.capture 3) (re.range "0" "9")))) (re.++ (re.union (str.to.re ")") (str.to.re "")) (re.++ (re.union (re.++ (str.to.re "") (str.to.re " ")) (str.to.re "")) (re.++ ((_ re.capture 4) (re.diff (re.range "\x01" "\xff") (re.range "0" "1"))) (re.++ (re.++ ((_ re.capture 5) (re.range "0" "9")) ((_ re.capture 6) (re.range "0" "9"))) (re.++ (re.union (re.++ (str.to.re "") (str.to.re " ")) (str.to.re "")) (re.++ (re.union (re.++ (str.to.re "") (str.to.re "-")) (str.to.re "")) (re.++ (re.union (re.++ (str.to.re "") (str.to.re " ")) (str.to.re "")) (re.++ (re.++ ((_ re.capture 7) (re.range "0" "9")) (re.++ ((_ re.capture 8) (re.range "0" "9")) (re.++ ((_ re.capture 9) (re.range "0" "9")) ((_ re.capture 10) (re.range "0" "9"))))) (re.++ (re.* (str.to.re " ")) (re.union ((_ re.capture 11) (re.++ (re.union ((_ re.capture 12) (str.to.re "x")) (str.to.re "")) (re.union (re.union (re.union (re.union (re.++ ((_ re.capture 13) (re.range "0" "9")) (re.++ ((_ re.capture 14) (re.range "0" "9")) (re.++ ((_ re.capture 15) (re.range "0" "9")) (re.++ ((_ re.capture 16) (re.range "0" "9")) ((_ re.capture 17) (re.range "0" "9")))))) (re.++ ((_ re.capture 18) (re.range "0" "9")) (re.++ ((_ re.capture 19) (re.range "0" "9")) (re.++ ((_ re.capture 20) (re.range "0" "9")) ((_ re.capture 21) (re.range "0" "9")))))) (re.++ ((_ re.capture 22) (re.range "0" "9")) (re.++ ((_ re.capture 23) (re.range "0" "9")) ((_ re.capture 24) (re.range "0" "9"))))) (re.++ ((_ re.capture 25) (re.range "0" "9")) ((_ re.capture 26) (re.range "0" "9")))) ((_ re.capture 27) (re.range "0" "9"))))) (str.to.re "")))))))))))))) re.end-anchor)) (str.to.re "\x00"))))
;match[1]!==null
(assert (str.in.re ((_ str.extract 1) var0 (re.++ (re.++ re.begin-anchor (re.++ (re.union (str.to.re "(") (str.to.re "")) (re.++ (re.++ ((_ re.capture 1) (re.range "0" "9")) (re.++ ((_ re.capture 2) (re.range "0" "9")) ((_ re.capture 3) (re.range "0" "9")))) (re.++ (re.union (str.to.re ")") (str.to.re "")) (re.++ (re.union (re.++ (str.to.re "") (str.to.re " ")) (str.to.re "")) (re.++ ((_ re.capture 4) (re.diff (re.range "\x01" "\xff") (re.range "0" "1"))) (re.++ (re.++ ((_ re.capture 5) (re.range "0" "9")) ((_ re.capture 6) (re.range "0" "9"))) (re.++ (re.union (re.++ (str.to.re "") (str.to.re " ")) (str.to.re "")) (re.++ (re.union (re.++ (str.to.re "") (str.to.re "-")) (str.to.re "")) (re.++ (re.union (re.++ (str.to.re "") (str.to.re " ")) (str.to.re "")) (re.++ (re.++ ((_ re.capture 7) (re.range "0" "9")) (re.++ ((_ re.capture 8) (re.range "0" "9")) (re.++ ((_ re.capture 9) (re.range "0" "9")) ((_ re.capture 10) (re.range "0" "9"))))) (re.++ (re.* (str.to.re " ")) (re.union ((_ re.capture 11) (re.++ (re.union ((_ re.capture 12) (str.to.re "x")) (str.to.re "")) (re.union (re.union (re.union (re.union (re.++ ((_ re.capture 13) (re.range "0" "9")) (re.++ ((_ re.capture 14) (re.range "0" "9")) (re.++ ((_ re.capture 15) (re.range "0" "9")) (re.++ ((_ re.capture 16) (re.range "0" "9")) ((_ re.capture 17) (re.range "0" "9")))))) (re.++ ((_ re.capture 18) (re.range "0" "9")) (re.++ ((_ re.capture 19) (re.range "0" "9")) (re.++ ((_ re.capture 20) (re.range "0" "9")) ((_ re.capture 21) (re.range "0" "9")))))) (re.++ ((_ re.capture 22) (re.range "0" "9")) (re.++ ((_ re.capture 23) (re.range "0" "9")) ((_ re.capture 24) (re.range "0" "9"))))) (re.++ ((_ re.capture 25) (re.range "0" "9")) ((_ re.capture 26) (re.range "0" "9")))) ((_ re.capture 27) (re.range "0" "9"))))) (str.to.re "")))))))))))))) re.end-anchor)) (re.++ re.all(re.+ (re.range "a" "z")) re.all) ))
;/[a-z]+/.test(match[1]) == true
(check-sat)
(get-model)
(pop 1)
(push 1)
(assert (str.in.re var0 (re.* (re.range "\x01" "\xff"))))
(assert (str.in.re var0 (re.++ (re.++ re.begin-anchor (re.++ (re.union (str.to.re "(") (str.to.re "")) (re.++ (re.++ ((_ re.capture 1) (re.range "0" "9")) (re.++ ((_ re.capture 2) (re.range "0" "9")) ((_ re.capture 3) (re.range "0" "9")))) (re.++ (re.union (str.to.re ")") (str.to.re "")) (re.++ (re.union (re.++ (str.to.re "") (str.to.re " ")) (str.to.re "")) (re.++ ((_ re.capture 4) (re.diff (re.range "\x01" "\xff") (re.range "0" "1"))) (re.++ (re.++ ((_ re.capture 5) (re.range "0" "9")) ((_ re.capture 6) (re.range "0" "9"))) (re.++ (re.union (re.++ (str.to.re "") (str.to.re " ")) (str.to.re "")) (re.++ (re.union (re.++ (str.to.re "") (str.to.re "-")) (str.to.re "")) (re.++ (re.union (re.++ (str.to.re "") (str.to.re " ")) (str.to.re "")) (re.++ (re.++ ((_ re.capture 7) (re.range "0" "9")) (re.++ ((_ re.capture 8) (re.range "0" "9")) (re.++ ((_ re.capture 9) (re.range "0" "9")) ((_ re.capture 10) (re.range "0" "9"))))) (re.++ (re.* (str.to.re " ")) (re.union ((_ re.capture 11) (re.++ (re.union ((_ re.capture 12) (str.to.re "x")) (str.to.re "")) (re.union (re.union (re.union (re.union (re.++ ((_ re.capture 13) (re.range "0" "9")) (re.++ ((_ re.capture 14) (re.range "0" "9")) (re.++ ((_ re.capture 15) (re.range "0" "9")) (re.++ ((_ re.capture 16) (re.range "0" "9")) ((_ re.capture 17) (re.range "0" "9")))))) (re.++ ((_ re.capture 18) (re.range "0" "9")) (re.++ ((_ re.capture 19) (re.range "0" "9")) (re.++ ((_ re.capture 20) (re.range "0" "9")) ((_ re.capture 21) (re.range "0" "9")))))) (re.++ ((_ re.capture 22) (re.range "0" "9")) (re.++ ((_ re.capture 23) (re.range "0" "9")) ((_ re.capture 24) (re.range "0" "9"))))) (re.++ ((_ re.capture 25) (re.range "0" "9")) ((_ re.capture 26) (re.range "0" "9")))) ((_ re.capture 27) (re.range "0" "9"))))) (str.to.re "")))))))))))))) re.end-anchor)))	; match!==null
(assert (not (str.in.re ((_ str.extract 1) var0 (re.++ (re.++ re.begin-anchor (re.++ (re.union (str.to.re "(") (str.to.re "")) (re.++ (re.++ ((_ re.capture 1) (re.range "0" "9")) (re.++ ((_ re.capture 2) (re.range "0" "9")) ((_ re.capture 3) (re.range "0" "9")))) (re.++ (re.union (str.to.re ")") (str.to.re "")) (re.++ (re.union (re.++ (str.to.re "") (str.to.re " ")) (str.to.re "")) (re.++ ((_ re.capture 4) (re.diff (re.range "\x01" "\xff") (re.range "0" "1"))) (re.++ (re.++ ((_ re.capture 5) (re.range "0" "9")) ((_ re.capture 6) (re.range "0" "9"))) (re.++ (re.union (re.++ (str.to.re "") (str.to.re " ")) (str.to.re "")) (re.++ (re.union (re.++ (str.to.re "") (str.to.re "-")) (str.to.re "")) (re.++ (re.union (re.++ (str.to.re "") (str.to.re " ")) (str.to.re "")) (re.++ (re.++ ((_ re.capture 7) (re.range "0" "9")) (re.++ ((_ re.capture 8) (re.range "0" "9")) (re.++ ((_ re.capture 9) (re.range "0" "9")) ((_ re.capture 10) (re.range "0" "9"))))) (re.++ (re.* (str.to.re " ")) (re.union ((_ re.capture 11) (re.++ (re.union ((_ re.capture 12) (str.to.re "x")) (str.to.re "")) (re.union (re.union (re.union (re.union (re.++ ((_ re.capture 13) (re.range "0" "9")) (re.++ ((_ re.capture 14) (re.range "0" "9")) (re.++ ((_ re.capture 15) (re.range "0" "9")) (re.++ ((_ re.capture 16) (re.range "0" "9")) ((_ re.capture 17) (re.range "0" "9")))))) (re.++ ((_ re.capture 18) (re.range "0" "9")) (re.++ ((_ re.capture 19) (re.range "0" "9")) (re.++ ((_ re.capture 20) (re.range "0" "9")) ((_ re.capture 21) (re.range "0" "9")))))) (re.++ ((_ re.capture 22) (re.range "0" "9")) (re.++ ((_ re.capture 23) (re.range "0" "9")) ((_ re.capture 24) (re.range "0" "9"))))) (re.++ ((_ re.capture 25) (re.range "0" "9")) ((_ re.capture 26) (re.range "0" "9")))) ((_ re.capture 27) (re.range "0" "9"))))) (str.to.re "")))))))))))))) re.end-anchor)) (str.to.re "\x00"))))	
;match[1]!==null
(assert (not (str.in.re ((_ str.extract 1) var0 (re.++ (re.++ re.begin-anchor (re.++ (re.union (str.to.re "(") (str.to.re "")) (re.++ (re.++ ((_ re.capture 1) (re.range "0" "9")) (re.++ ((_ re.capture 2) (re.range "0" "9")) ((_ re.capture 3) (re.range "0" "9")))) (re.++ (re.union (str.to.re ")") (str.to.re "")) (re.++ (re.union (re.++ (str.to.re "") (str.to.re " ")) (str.to.re "")) (re.++ ((_ re.capture 4) (re.diff (re.range "\x01" "\xff") (re.range "0" "1"))) (re.++ (re.++ ((_ re.capture 5) (re.range "0" "9")) ((_ re.capture 6) (re.range "0" "9"))) (re.++ (re.union (re.++ (str.to.re "") (str.to.re " ")) (str.to.re "")) (re.++ (re.union (re.++ (str.to.re "") (str.to.re "-")) (str.to.re "")) (re.++ (re.union (re.++ (str.to.re "") (str.to.re " ")) (str.to.re "")) (re.++ (re.++ ((_ re.capture 7) (re.range "0" "9")) (re.++ ((_ re.capture 8) (re.range "0" "9")) (re.++ ((_ re.capture 9) (re.range "0" "9")) ((_ re.capture 10) (re.range "0" "9"))))) (re.++ (re.* (str.to.re " ")) (re.union ((_ re.capture 11) (re.++ (re.union ((_ re.capture 12) (str.to.re "x")) (str.to.re "")) (re.union (re.union (re.union (re.union (re.++ ((_ re.capture 13) (re.range "0" "9")) (re.++ ((_ re.capture 14) (re.range "0" "9")) (re.++ ((_ re.capture 15) (re.range "0" "9")) (re.++ ((_ re.capture 16) (re.range "0" "9")) ((_ re.capture 17) (re.range "0" "9")))))) (re.++ ((_ re.capture 18) (re.range "0" "9")) (re.++ ((_ re.capture 19) (re.range "0" "9")) (re.++ ((_ re.capture 20) (re.range "0" "9")) ((_ re.capture 21) (re.range "0" "9")))))) (re.++ ((_ re.capture 22) (re.range "0" "9")) (re.++ ((_ re.capture 23) (re.range "0" "9")) ((_ re.capture 24) (re.range "0" "9"))))) (re.++ ((_ re.capture 25) (re.range "0" "9")) ((_ re.capture 26) (re.range "0" "9")))) ((_ re.capture 27) (re.range "0" "9"))))) (str.to.re "")))))))))))))) re.end-anchor)) (re.++ re.all(re.+ (re.range "a" "z")) re.all) )))
;/[a-z]+/.test(match[1]) == false	
(check-sat)
(get-model)
(pop 1)
(push 1)
(assert (str.in.re var0 (re.* (re.range "\x01" "\xff"))))
(assert (str.in.re var0 (re.++ (re.++ re.begin-anchor (re.++ (re.union (str.to.re "(") (str.to.re "")) (re.++ (re.++ ((_ re.capture 1) (re.range "0" "9")) (re.++ ((_ re.capture 2) (re.range "0" "9")) ((_ re.capture 3) (re.range "0" "9")))) (re.++ (re.union (str.to.re ")") (str.to.re "")) (re.++ (re.union (re.++ (str.to.re "") (str.to.re " ")) (str.to.re "")) (re.++ ((_ re.capture 4) (re.diff (re.range "\x01" "\xff") (re.range "0" "1"))) (re.++ (re.++ ((_ re.capture 5) (re.range "0" "9")) ((_ re.capture 6) (re.range "0" "9"))) (re.++ (re.union (re.++ (str.to.re "") (str.to.re " ")) (str.to.re "")) (re.++ (re.union (re.++ (str.to.re "") (str.to.re "-")) (str.to.re "")) (re.++ (re.union (re.++ (str.to.re "") (str.to.re " ")) (str.to.re "")) (re.++ (re.++ ((_ re.capture 7) (re.range "0" "9")) (re.++ ((_ re.capture 8) (re.range "0" "9")) (re.++ ((_ re.capture 9) (re.range "0" "9")) ((_ re.capture 10) (re.range "0" "9"))))) (re.++ (re.* (str.to.re " ")) (re.union ((_ re.capture 11) (re.++ (re.union ((_ re.capture 12) (str.to.re "x")) (str.to.re "")) (re.union (re.union (re.union (re.union (re.++ ((_ re.capture 13) (re.range "0" "9")) (re.++ ((_ re.capture 14) (re.range "0" "9")) (re.++ ((_ re.capture 15) (re.range "0" "9")) (re.++ ((_ re.capture 16) (re.range "0" "9")) ((_ re.capture 17) (re.range "0" "9")))))) (re.++ ((_ re.capture 18) (re.range "0" "9")) (re.++ ((_ re.capture 19) (re.range "0" "9")) (re.++ ((_ re.capture 20) (re.range "0" "9")) ((_ re.capture 21) (re.range "0" "9")))))) (re.++ ((_ re.capture 22) (re.range "0" "9")) (re.++ ((_ re.capture 23) (re.range "0" "9")) ((_ re.capture 24) (re.range "0" "9"))))) (re.++ ((_ re.capture 25) (re.range "0" "9")) ((_ re.capture 26) (re.range "0" "9")))) ((_ re.capture 27) (re.range "0" "9"))))) (str.to.re "")))))))))))))) re.end-anchor)))	; match!==null
(assert (str.in.re ((_ str.extract 1) var0 (re.++ (re.++ re.begin-anchor (re.++ (re.union (str.to.re "(") (str.to.re "")) (re.++ (re.++ ((_ re.capture 1) (re.range "0" "9")) (re.++ ((_ re.capture 2) (re.range "0" "9")) ((_ re.capture 3) (re.range "0" "9")))) (re.++ (re.union (str.to.re ")") (str.to.re "")) (re.++ (re.union (re.++ (str.to.re "") (str.to.re " ")) (str.to.re "")) (re.++ ((_ re.capture 4) (re.diff (re.range "\x01" "\xff") (re.range "0" "1"))) (re.++ (re.++ ((_ re.capture 5) (re.range "0" "9")) ((_ re.capture 6) (re.range "0" "9"))) (re.++ (re.union (re.++ (str.to.re "") (str.to.re " ")) (str.to.re "")) (re.++ (re.union (re.++ (str.to.re "") (str.to.re "-")) (str.to.re "")) (re.++ (re.union (re.++ (str.to.re "") (str.to.re " ")) (str.to.re "")) (re.++ (re.++ ((_ re.capture 7) (re.range "0" "9")) (re.++ ((_ re.capture 8) (re.range "0" "9")) (re.++ ((_ re.capture 9) (re.range "0" "9")) ((_ re.capture 10) (re.range "0" "9"))))) (re.++ (re.* (str.to.re " ")) (re.union ((_ re.capture 11) (re.++ (re.union ((_ re.capture 12) (str.to.re "x")) (str.to.re "")) (re.union (re.union (re.union (re.union (re.++ ((_ re.capture 13) (re.range "0" "9")) (re.++ ((_ re.capture 14) (re.range "0" "9")) (re.++ ((_ re.capture 15) (re.range "0" "9")) (re.++ ((_ re.capture 16) (re.range "0" "9")) ((_ re.capture 17) (re.range "0" "9")))))) (re.++ ((_ re.capture 18) (re.range "0" "9")) (re.++ ((_ re.capture 19) (re.range "0" "9")) (re.++ ((_ re.capture 20) (re.range "0" "9")) ((_ re.capture 21) (re.range "0" "9")))))) (re.++ ((_ re.capture 22) (re.range "0" "9")) (re.++ ((_ re.capture 23) (re.range "0" "9")) ((_ re.capture 24) (re.range "0" "9"))))) (re.++ ((_ re.capture 25) (re.range "0" "9")) ((_ re.capture 26) (re.range "0" "9")))) ((_ re.capture 27) (re.range "0" "9"))))) (str.to.re "")))))))))))))) re.end-anchor)) (str.to.re "\x00")))
;match[1]==null
(check-sat)
(get-model)
(pop 1)
(push 1)
(assert (str.in.re var0 (re.* (re.range "\x01" "\xff"))))
(assert (not (str.in.re var0 (re.++ (re.++ re.begin-anchor (re.++ (re.union (str.to.re "(") (str.to.re "")) (re.++ (re.++ ((_ re.capture 1) (re.range "0" "9")) (re.++ ((_ re.capture 2) (re.range "0" "9")) ((_ re.capture 3) (re.range "0" "9")))) (re.++ (re.union (str.to.re ")") (str.to.re "")) (re.++ (re.union (re.++ (str.to.re "") (str.to.re " ")) (str.to.re "")) (re.++ ((_ re.capture 4) (re.diff (re.range "\x01" "\xff") (re.range "0" "1"))) (re.++ (re.++ ((_ re.capture 5) (re.range "0" "9")) ((_ re.capture 6) (re.range "0" "9"))) (re.++ (re.union (re.++ (str.to.re "") (str.to.re " ")) (str.to.re "")) (re.++ (re.union (re.++ (str.to.re "") (str.to.re "-")) (str.to.re "")) (re.++ (re.union (re.++ (str.to.re "") (str.to.re " ")) (str.to.re "")) (re.++ (re.++ ((_ re.capture 7) (re.range "0" "9")) (re.++ ((_ re.capture 8) (re.range "0" "9")) (re.++ ((_ re.capture 9) (re.range "0" "9")) ((_ re.capture 10) (re.range "0" "9"))))) (re.++ (re.* (str.to.re " ")) (re.union ((_ re.capture 11) (re.++ (re.union ((_ re.capture 12) (str.to.re "x")) (str.to.re "")) (re.union (re.union (re.union (re.union (re.++ ((_ re.capture 13) (re.range "0" "9")) (re.++ ((_ re.capture 14) (re.range "0" "9")) (re.++ ((_ re.capture 15) (re.range "0" "9")) (re.++ ((_ re.capture 16) (re.range "0" "9")) ((_ re.capture 17) (re.range "0" "9")))))) (re.++ ((_ re.capture 18) (re.range "0" "9")) (re.++ ((_ re.capture 19) (re.range "0" "9")) (re.++ ((_ re.capture 20) (re.range "0" "9")) ((_ re.capture 21) (re.range "0" "9")))))) (re.++ ((_ re.capture 22) (re.range "0" "9")) (re.++ ((_ re.capture 23) (re.range "0" "9")) ((_ re.capture 24) (re.range "0" "9"))))) (re.++ ((_ re.capture 25) (re.range "0" "9")) ((_ re.capture 26) (re.range "0" "9")))) ((_ re.capture 27) (re.range "0" "9"))))) (str.to.re "")))))))))))))) re.end-anchor))))	; match == null
(check-sat)
(get-model)
(pop 1)
(exit)
